Version identifier: 12.10.0.0 | 2019-11-26 | 843d4de
CPXPARAM_WorkMem                                 16384
CPXPARAM_MIP_Limits_TreeMemory                   24576
Tried aggregator 2 times.
MIP Presolve modified 10 coefficients.
Aggregator did 45 substitutions.
Reduced MIP has 199 rows, 240 columns, and 860 nonzeros.
Reduced MIP has 240 binaries, 0 generals, 0 SOSs, and 0 indicators.
Presolve time = 0,00 sec. (0,93 ticks)
Found incumbent of value 560,000000 after 0,00 sec. (1,53 ticks)
Probing time = 0,00 sec. (0,30 ticks)
Tried aggregator 1 time.
Detecting symmetries...
MIP Presolve eliminated 60 rows and 0 columns.
MIP Presolve added 120 rows and 0 columns.
Reduced MIP has 259 rows, 240 columns, and 920 nonzeros.
Reduced MIP has 240 binaries, 0 generals, 0 SOSs, and 0 indicators.
Presolve time = 0,00 sec. (1,12 ticks)
Probing time = 0,00 sec. (0,29 ticks)
Clique table members: 575.
MIP emphasis: balance optimality and feasibility.
MIP search method: dynamic search.
Parallel mode: deterministic, using up to 16 threads.
Root relaxation solution time = 0,00 sec. (1,22 ticks)

        Nodes                                         Cuts/
   Node  Left     Objective  IInf  Best Integer    Best Bound    ItCnt     Gap

*     0+    0                          560,0000        0,0000           100,00%
*     0+    0                          336,0000        0,0000           100,00%
      0     0      141,8333   176      336,0000      141,8333      141   57,79%
*     0+    0                          331,0000      141,8333            57,15%
      0     0      145,6427   176      331,0000     Cuts: 164      235   56,00%
      0     0      149,4450   176      331,0000     Cuts: 163      297   54,85%
      0     0      150,1028   176      331,0000     Cuts: 143      372   54,65%
      0     0      150,2543   176      331,0000      Cuts: 95      411   54,61%
*     0+    0                          330,0000      150,2543            54,47%
      0     0      150,6192   176      330,0000      Cuts: 19      454   54,36%
      0     0      150,7945   176      330,0000      Cuts: 40      474   54,30%
      0     0      151,0060   176      330,0000      Cuts: 60      533   54,24%
      0     0      151,2769   176      330,0000     Cuts: 113      586   54,16%
      0     0      151,5126   176      330,0000      Cuts: 13      646   54,09%
      0     0      151,7485   176      330,0000      Cuts: 87      710   54,02%
*     0+    0                          284,0000      151,7485            46,57%
      0     0      151,9520   176      284,0000      Cuts: 39      768   32,09%
      0     0      151,9948   176      284,0000      Cuts: 38      784   32,09%
      0     2      151,9948   239      284,0000      192,8750      784   32,09%
Elapsed time = 0,28 sec. (144,23 ticks, tree = 0,02 MB, solutions = 5)
   1602   990        cutoff            284,0000      205,9766    39683   27,47%

Performing restart 1

Repeating presolve.
Tried aggregator 1 time.
Reduced MIP has 259 rows, 240 columns, and 920 nonzeros.
Reduced MIP has 240 binaries, 0 generals, 0 SOSs, and 0 indicators.
Presolve time = 0,00 sec. (0,56 ticks)
Tried aggregator 1 time.
Reduced MIP has 259 rows, 240 columns, and 920 nonzeros.
Reduced MIP has 240 binaries, 0 generals, 0 SOSs, and 0 indicators.
Presolve time = 0,00 sec. (0,79 ticks)
Represolve time = 0,01 sec. (6,40 ticks)
   4911     0      154,9847   239      284,0000      Cuts: 10   119095   15,05%
   4911     0      158,1820   239      284,0000      Cuts: 26   119166   15,05%
   4911     0      159,5244   239      284,0000      Cuts: 28   119255   15,05%
   4911     0      160,3469   239      284,0000      Cuts: 25   119360   15,05%
   4911     0      160,9411   239      284,0000      Cuts: 18   119475   15,05%
   4911     2      160,9411   240      284,0000      241,2544   119475   15,05%
   5247    53      252,0769   135      284,0000      241,2544   124620   15,05%
   7099  1647      224,0831   197      284,0000      241,2544   219003   15,05%
   9854  3266      270,5076   156      284,0000      241,2544   320669   15,05%

Performing restart 2

Repeating presolve.
Tried aggregator 1 time.
Reduced MIP has 259 rows, 240 columns, and 920 nonzeros.
Reduced MIP has 240 binaries, 0 generals, 0 SOSs, and 0 indicators.
Presolve time = 0,00 sec. (0,56 ticks)
Tried aggregator 1 time.
Reduced MIP has 259 rows, 240 columns, and 920 nonzeros.
Reduced MIP has 240 binaries, 0 generals, 0 SOSs, and 0 indicators.
Presolve time = 0,00 sec. (0,79 ticks)
Represolve time = 0,03 sec. (16,08 ticks)
  11388     0      161,1746   240      284,0000      Cuts: 17   396336   15,05%
  11388     0      161,2275   240      284,0000       Cuts: 6   396405   15,05%
  11388     0      161,3011   240      284,0000  ZeroHalf: 10   396453   15,05%
  11388     0      163,0787   240      284,0000       Cuts: 8   396611   15,05%
  11388     0      163,2187   240      284,0000      Cuts: 27   396665   15,05%
  11388     0      163,3714   240      284,0000      Cuts: 41   396713   15,05%
  11388     2      163,3714   240      284,0000      241,2544   396713   15,05%
* 14358  1470      integral     0      283,0000      246,5222   464615   12,89%
  14463  1412      278,8333   106      283,0000      247,3564   460882   12,59%

Clique cuts applied:  17
Cover cuts applied:  251
Flow cuts applied:  4
Mixed integer rounding cuts applied:  69
Zero-half cuts applied:  28
Lift and project cuts applied:  1
Gomory fractional cuts applied:  37

Root node processing (before b&c):
  Real time             =    0,28 sec. (143,80 ticks)
Parallel b&c, 16 threads:
  Real time             =    3,25 sec. (2584,03 ticks)
  Sync time (average)   =    0,72 sec.
  Wait time (average)   =    0,01 sec.
                          ------------
Total (root+branch&cut) =    3,53 sec. (2727,83 ticks)
